Version identifier: 22.1.1.0 | 2022-11-28 | 9160aff4d
CPXPARAM_ClockType                               1
CPXPARAM_Read_DataCheck                          1
CPXPARAM_Threads                                 1
CPXPARAM_Simplex_Tolerances_Optimality           1.0000000000000001e-09
CPXPARAM_TimeLimit                               7200
CPXPARAM_MIP_Tolerances_AbsMIPGap                0
CPXPARAM_MIP_Tolerances_MIPGap                   0
CPXPARAM_MIP_Tolerances_Integrality              0
Tried aggregator 6 times.
MIQP Presolve eliminated 31577 rows and 524 columns.
MIQP Presolve modified 1761 coefficients.
Aggregator did 640 substitutions.
Reduced MIQP has 36207 rows, 10246 columns, and 130029 nonzeros.
Reduced MIQP has 9189 binaries, 1057 generals, 0 SOSs, and 0 indicators.
Reduced MIQP objective Q matrix has 1057 nonzeros.
Presolve time = 0.40 sec. (267.09 ticks)
Probing fixed 2102 vars, tightened 2102 bounds.
Probing time = 0.21 sec. (66.02 ticks)
Tried aggregator 5 times.
MIQP Presolve eliminated 15915 rows and 2577 columns.
MIQP Presolve modified 720 coefficients.
Aggregator did 1684 substitutions.
Reduced MIQP has 18608 rows, 5985 columns, and 64957 nonzeros.
Reduced MIQP has 5346 binaries, 639 generals, 0 SOSs, and 0 indicators.
Reduced MIQP objective Q matrix has 639 nonzeros.
Presolve time = 0.31 sec. (185.27 ticks)
Probing fixed 256 vars, tightened 253 bounds.
Probing time = 0.09 sec. (33.18 ticks)
Tried aggregator 3 times.
MIQP Presolve eliminated 2147 rows and 311 columns.
MIQP Presolve modified 178 coefficients.
Aggregator did 206 substitutions.
Reduced MIQP has 16255 rows, 5468 columns, and 56713 nonzeros.
Reduced MIQP has 4881 binaries, 587 generals, 0 SOSs, and 0 indicators.
Reduced MIQP objective Q matrix has 587 nonzeros.
Presolve time = 0.18 sec. (97.65 ticks)
Classifier predicts products in MIQP should be linearized.
Probing time = 0.01 sec. (3.95 ticks)
Clique table members: 16988.
MIP emphasis: balance optimality and feasibility.
MIP search method: dynamic search.
Parallel mode: none, using 1 thread.
Root relaxation solution time = 15.64 sec. (32870.56 ticks)

        Nodes                                         Cuts/
   Node  Left     Objective  IInf  Best Integer    Best Bound    ItCnt     Gap

      0     0     2622.3481  2615                   2622.3481        9         
      0     0     2622.2236  3345                  Cuts: 1668    44166         
      0     0     2621.0976  3403                  Cuts: 1800   149371         
      0     0     2621.0976  4111                  Cuts: 2145   317763         
      0     0     2621.0315  4626                  Cuts: 2148   387484         
      0     0     2621.0315  4957                  Cuts: 4163   531997         

Clique cuts applied:  1589
Implied bound cuts applied:  512
Flow cuts applied:  34
Mixed integer rounding cuts applied:  4
Zero-half cuts applied:  4532

Root node processing (before b&c):
  Real time             = 7201.24 sec. (3558311.45 ticks)
Sequential b&c:
  Real time             =    0.00 sec. (0.00 ticks)
                          ------------
Total (root+branch&cut) = 7201.24 sec. (3558311.45 ticks)
Solution is infeasible.

---------------------
@@@ MIP_time_limit_infeasible
Traceback (most recent call last):
  File "/scratch/scherif/DiverseSAT-journal_sup/DiverseSAT_Supplementary_Experiments/experiment-1/cplex/jobs/../solvers/CPLEX-QP-SE.py", line 118, in <module>
    print(f">>> Benchmark {os.path.basename(cnf_file)} k {k} OPT {int(prob.solution.get_objective_value())}"
  File "/users/scherif/.local/lib/python3.9/site-packages/cplex/_internal/_subinterfaces.py", line 7211, in get_objective_value
    return CPX_PROC.getobjval(self._env._e, self._cplex._lp)
  File "/users/scherif/.local/lib/python3.9/site-packages/cplex/_internal/_procedural.py", line 2055, in getobjval
    check_status(env, status)
  File "/users/scherif/.local/lib/python3.9/site-packages/cplex/_internal/_procedural.py", line 249, in __call__
    raise CplexSolverError(error_string, env, status)
cplex.exceptions.errors.CplexSolverError: CPLEX Error  1217: No solution exists.
